units metal 
dimension 3 
boundary p p p
atom_style full
read_data test.dat 

pair_style rebo 
pair_coeff * * /opt/lammps/potentials/CH.airebo C

timestep 0.000329

#neighbor 1.0 bin
#neigh_modify every 1 delay 0 check yes
#
#min_style cg 
#minimize 1e-25 1e-25 5000 10000

fix 1   all nve

dump 1 all xyz 1 dump*.xyz 

run 1000
