units metal 
dimension 3 
boundary p p p 
atom_style full
read_data test.dat 

pair_style rebo 
pair_coeff * * /opt/lammps/potentials/CH.airebo C
