units metal 
dimension 3 
boundary p p p 
atom_style full
read_data test.dat 

pair_style rebo 
pair_coeff * * /home/jtlu/Downloads/soft/LAMMPS/lammps-stable_22Aug2018/potentials/CH.airebo C


run 10 
